h 1 0
h -2 0
h 3 -4 0
h -3 2 0
3228122314931206639 -5 0
2613845095045848882 -6 0
1752082871191114661 -7 0
5130755606859643963 -8 0
h -9 10 0
h -11 9 0
h 4 3 5 0
4498848305422011491 -12 0
1223089880259725979 -13 0
h 2 11 0
h 2 -10 0
